Traveling Salesman Problem/TSP_generados/Aleatorio1620391659_16.tsp
NAME: Aleatorio1620391659_16.tsp
COMMENT: Randomly generated scenario
TYPE: TSP
DIMENSION: 16
EDGE_WEIGHT_TYPE: ATT
NODE_COORD_SECTION
1 15.14 48.26
2 47.02 8.66
3 47.39 17.51
4 14.43 41.96
5 36.66 24.11
6 20.24 9.74
7 49.09 24.33
8 36.87 20.31
9 11.08 41.12
10 14.97 5.15
11 36.76 1.01
12 43.59 10.08
13 44.82 21.48
14 33.95 13.17
15 5.34 30.0
16 45.95 18.9
