Traveling Salesman Problem/TSP_generados/Aleatorio1620391659_16.opt.tour
NAME: Aleatorio1620391659_16.opt.tour
COMMENT: Optimal solution for Aleatorio1620391659_16 (164.08025714989714)
TYPE: TOUR
DIMENSION: 16
TOUR_SECTION
1 4 9 15 10 6 14 11 12 2 3 16 7 13 8 5
-1
EOF
